p cnf 14 61
c max 11 12 13 14 0
c ind 1 2 3 4 5 6 7 8 9 10 0
c p weight 4 0.9238795325112867384831361050601117312908172607421875 0
c p weight -4 1 0
c p weight 5 -0.382683432365089781779232680491986684501171112060546875 0
c p weight -5 1 0
c p weight 6 -1 0
c p weight -6 1 0
c p weight 9 -1 0
c p weight -9 1 0
c p weight 10 0.70710678118654752440084436210485 0
c p weight -10 1 0
3 1 -2 0
-3 1 2 0
-4 1 0
3 -4 -2 0
-3 -4 2 0
3 4 -1 2 0
-3 4 -1 -2 0
-5 1 0
3 -5 2 0
-3 -5 -2 0
3 5 -1 -2 0
-3 5 -1 2 0
-6 1 0
-6 2 0
-6 -3 0
6 3 -1 -2 0
-9 -11 0
7 -11 -1 0
-7 -11 1 0
8 -11 -3 0
-8 -11 3 0
-10 -11 0
-9 -12 1 0
-9 -12 3 0
9 -12 -1 -3 0
7 -12 -3 0
-7 -12 3 0
8 -12 -1 0
-8 -12 1 0
-10 -12 0
-9 8 -13 0
-9 -13 1 0
-9 -13 -3 0
9 -8 -13 -1 3 0
-9 -14 1 0
-9 -14 3 0
-9 -8 -14 0
9 8 -14 -1 -3 0
7 -13 -1 0
7 -14 -1 0
-7 -13 1 0
-7 -14 1 0
8 -13 1 -3 0
8 -14 1 -3 0
-8 -13 1 3 0
-8 -14 1 3 0
10 -13 -1 0
10 -14 -1 0
-10 -13 1 0
-10 -14 1 0
11 12 13 14 0
-11 -12 0
-11 -13 0
-11 -14 0
-12 -13 0
-12 -14 0
-13 -14 0
7 -1 0
-7 1 0
8 -2 0
-8 2 0
